p cnf 183 821
59 96 102 105 0
49 91 106 120 0
85 92 94 0
71 88 113 0
98 115 0
39 66 93 129 0
80 116 0
110 118 161 0
124 127 0
60 74 131 0
48 72 90 107 0
84 123 0
68 70 126 0
95 103 0
57 62 64 0
157 159 0
58 77 0
73 104 0
47 53 83 0
43 44 121 0
41 97 114 0
55 135 0
137 178 0
138 139 142 0
61 143 0
75 133 144 145 0
147 148 149 0
51 54 151 0
45 86 89 108 122 0
40 42 100 152 0
63 65 81 117 130 0
153 154 155 0
56 111 119 156 158 0
160 163 165 166 167 0
136 169 171 0
128 141 172 173 174 0
175 176 0
-66 -161 0
-66 -179 0
-66 -177 0
-161 -179 0
-161 -177 0
-177 -179 0
-48 -60 0
-60 -84 0
-60 -180 0
-48 -84 0
-48 -180 0
-84 -180 0
-45 -133 0
-133 -181 0
-133 -152 0
-45 -181 0
-45 -152 0
-152 -181 0
-65 -160 0
-65 -136 0
-65 -78 0
-136 -160 0
-78 -160 0
-78 -136 0
-60 -66 0
-66 -133 0
-65 -66 0
-60 -133 0
-60 -65 0
-65 -133 0
-48 -161 0
-45 -161 0
-160 -161 0
-45 -48 0
-48 -160 0
-45 -160 0
-84 -179 0
-179 -181 0
-136 -179 0
-84 -181 0
-84 -136 0
-136 -181 0
-177 -180 0
-152 -177 0
-78 -177 0
-152 -180 0
-78 -180 0
-78 -152 0
-59 -146 0
-49 -59 0
-59 -85 0
-49 -146 0
-85 -146 0
-49 -85 0
-39 -80 0
-39 -110 0
-39 -168 0
-80 -110 0
-80 -168 0
-110 -168 0
-104 -134 0
-44 -134 0
-134 -182 0
-44 -104 0
-104 -182 0
-44 -182 0
-67 -183 0
-67 -162 0
-67 -178 0
-162 -183 0
-178 -183 0
-162 -178 0
-39 -59 0
-59 -134 0
-59 -67 0
-39 -134 0
-39 -67 0
-67 -134 0
-80 -146 0
-104 -146 0
-146 -183 0
-80 -104 0
-80 -183 0
-104 -183 0
-49 -110 0
-44 -49 0
-49 -162 0
-44 -110 0
-110 -162 0
-44 -162 0
-85 -168 0
-85 -182 0
-85 -178 0
-168 -182 0
-168 -178 0
-178 -182 0
-37 -105 0
-52 -105 0
-105 -120 0
-88 -105 0
-36 -105 0
-105 -115 0
-37 -52 0
-37 -120 0
-37 -88 0
-36 -37 0
-37 -115 0
-52 -120 0
-52 -88 0
-36 -52 0
-52 -115 0
-88 -120 0
-36 -120 0
-115 -120 0
-36 -88 0
-88 -115 0
-36 -115 0
-93 -116 0
-35 -93 0
-93 -118 0
-93 -124 0
-34 -93 0
-33 -93 0
-35 -116 0
-116 -118 0
-116 -124 0
-34 -116 0
-33 -116 0
-35 -118 0
-35 -124 0
-34 -35 0
-33 -35 0
-118 -124 0
-34 -118 0
-33 -118 0
-34 -124 0
-33 -124 0
-33 -34 0
-32 -131 0
-131 -150 0
-107 -131 0
-126 -131 0
-103 -131 0
-99 -131 0
-32 -150 0
-32 -107 0
-32 -126 0
-32 -103 0
-32 -99 0
-107 -150 0
-126 -150 0
-103 -150 0
-99 -150 0
-107 -126 0
-103 -107 0
-99 -107 0
-103 -126 0
-99 -126 0
-99 -103 0
-31 -64 0
-64 -157 0
-64 -164 0
-64 -140 0
-30 -64 0
-64 -77 0
-31 -157 0
-31 -164 0
-31 -140 0
-30 -31 0
-31 -77 0
-157 -164 0
-140 -157 0
-30 -157 0
-77 -157 0
-140 -164 0
-30 -164 0
-77 -164 0
-30 -140 0
-77 -140 0
-30 -77 0
-38 -79 0
-38 -135 0
-38 -109 0
-38 -138 0
-29 -38 0
-38 -143 0
-79 -135 0
-79 -109 0
-79 -138 0
-29 -79 0
-79 -143 0
-109 -135 0
-135 -138 0
-29 -135 0
-135 -143 0
-109 -138 0
-29 -109 0
-109 -143 0
-29 -138 0
-138 -143 0
-29 -143 0
-144 -147 0
-54 -144 0
-122 -144 0
-28 -144 0
-27 -144 0
-42 -144 0
-54 -147 0
-122 -147 0
-28 -147 0
-27 -147 0
-42 -147 0
-54 -122 0
-28 -54 0
-27 -54 0
-42 -54 0
-28 -122 0
-27 -122 0
-42 -122 0
-27 -28 0
-28 -42 0
-27 -42 0
-63 -153 0
-63 -156 0
-63 -163 0
-63 -172 0
-63 -175 0
-26 -63 0
-153 -156 0
-153 -163 0
-153 -172 0
-153 -175 0
-26 -153 0
-156 -163 0
-156 -172 0
-156 -175 0
-26 -156 0
-163 -172 0
-163 -175 0
-26 -163 0
-172 -175 0
-26 -172 0
-26 -175 0
-93 -105 0
-105 -131 0
-64 -105 0
-38 -105 0
-105 -144 0
-63 -105 0
-93 -131 0
-64 -93 0
-38 -93 0
-93 -144 0
-63 -93 0
-64 -131 0
-38 -131 0
-131 -144 0
-63 -131 0
-38 -64 0
-64 -144 0
-63 -64 0
-38 -144 0
-38 -63 0
-63 -144 0
-37 -116 0
-32 -37 0
-31 -37 0
-37 -79 0
-37 -147 0
-37 -153 0
-32 -116 0
-31 -116 0
-79 -116 0
-116 -147 0
-116 -153 0
-31 -32 0
-32 -79 0
-32 -147 0
-32 -153 0
-31 -79 0
-31 -147 0
-31 -153 0
-79 -147 0
-79 -153 0
-147 -153 0
-35 -52 0
-52 -150 0
-52 -157 0
-52 -135 0
-52 -54 0
-52 -156 0
-35 -150 0
-35 -157 0
-35 -135 0
-35 -54 0
-35 -156 0
-150 -157 0
-135 -150 0
-54 -150 0
-150 -156 0
-135 -157 0
-54 -157 0
-156 -157 0
-54 -135 0
-135 -156 0
-54 -156 0
-118 -120 0
-107 -120 0
-120 -164 0
-109 -120 0
-120 -122 0
-120 -163 0
-107 -118 0
-118 -164 0
-109 -118 0
-118 -122 0
-118 -163 0
-107 -164 0
-107 -109 0
-107 -122 0
-107 -163 0
-109 -164 0
-122 -164 0
-163 -164 0
-109 -122 0
-109 -163 0
-122 -163 0
-88 -124 0
-88 -126 0
-88 -140 0
-88 -138 0
-28 -88 0
-88 -172 0
-124 -126 0
-124 -140 0
-124 -138 0
-28 -124 0
-124 -172 0
-126 -140 0
-126 -138 0
-28 -126 0
-126 -172 0
-138 -140 0
-28 -140 0
-140 -172 0
-28 -138 0
-138 -172 0
-28 -172 0
-34 -36 0
-36 -103 0
-30 -36 0
-29 -36 0
-27 -36 0
-36 -175 0
-34 -103 0
-30 -34 0
-29 -34 0
-27 -34 0
-34 -175 0
-30 -103 0
-29 -103 0
-27 -103 0
-103 -175 0
-29 -30 0
-27 -30 0
-30 -175 0
-27 -29 0
-29 -175 0
-27 -175 0
-33 -115 0
-99 -115 0
-77 -115 0
-115 -143 0
-42 -115 0
-26 -115 0
-33 -99 0
-33 -77 0
-33 -143 0
-33 -42 0
-26 -33 0
-77 -99 0
-99 -143 0
-42 -99 0
-26 -99 0
-77 -143 0
-42 -77 0
-26 -77 0
-42 -143 0
-26 -143 0
-26 -42 0
-25 -90 0
-25 -70 0
-24 -25 0
-70 -90 0
-24 -90 0
-24 -70 0
-53 -121 0
-53 -87 0
-53 -114 0
-87 -121 0
-114 -121 0
-87 -114 0
-108 -151 0
-125 -151 0
-100 -151 0
-108 -125 0
-100 -108 0
-100 -125 0
-158 -165 0
-141 -158 0
-76 -158 0
-141 -165 0
-76 -165 0
-76 -141 0
-25 -53 0
-25 -151 0
-25 -158 0
-53 -151 0
-53 -158 0
-151 -158 0
-90 -121 0
-90 -108 0
-90 -165 0
-108 -121 0
-121 -165 0
-108 -165 0
-70 -87 0
-70 -125 0
-70 -141 0
-87 -125 0
-87 -141 0
-125 -141 0
-24 -114 0
-24 -100 0
-24 -76 0
-100 -114 0
-76 -114 0
-76 -100 0
-23 -96 0
-91 -96 0
-94 -96 0
-71 -96 0
-23 -91 0
-23 -94 0
-23 -71 0
-91 -94 0
-71 -91 0
-71 -94 0
-22 -62 0
-21 -62 0
-62 -170 0
-20 -62 0
-21 -22 0
-22 -170 0
-20 -22 0
-21 -170 0
-20 -21 0
-20 -170 0
-18 -19 0
-17 -19 0
-19 -137 0
-19 -139 0
-17 -18 0
-18 -137 0
-18 -139 0
-17 -137 0
-17 -139 0
-137 -139 0
-75 -148 0
-75 -89 0
-16 -75 0
-69 -75 0
-89 -148 0
-16 -148 0
-69 -148 0
-16 -89 0
-69 -89 0
-16 -69 0
-130 -154 0
-130 -166 0
-130 -169 0
-128 -130 0
-154 -166 0
-154 -169 0
-128 -154 0
-166 -169 0
-128 -166 0
-128 -169 0
-62 -96 0
-19 -96 0
-75 -96 0
-96 -130 0
-19 -62 0
-62 -75 0
-62 -130 0
-19 -75 0
-19 -130 0
-75 -130 0
-22 -23 0
-18 -23 0
-23 -148 0
-23 -154 0
-18 -22 0
-22 -148 0
-22 -154 0
-18 -148 0
-18 -154 0
-148 -154 0
-21 -91 0
-17 -91 0
-89 -91 0
-91 -166 0
-17 -21 0
-21 -89 0
-21 -166 0
-17 -89 0
-17 -166 0
-89 -166 0
-94 -170 0
-94 -137 0
-16 -94 0
-94 -169 0
-137 -170 0
-16 -170 0
-169 -170 0
-16 -137 0
-137 -169 0
-16 -169 0
-20 -71 0
-71 -139 0
-69 -71 0
-71 -128 0
-20 -139 0
-20 -69 0
-20 -128 0
-69 -139 0
-128 -139 0
-69 -128 0
-82 -92 0
-15 -82 0
-15 -92 0
-50 -123 0
-50 -95 0
-95 -123 0
-56 -171 0
-56 -176 0
-171 -176 0
-50 -82 0
-56 -82 0
-50 -56 0
-92 -123 0
-92 -171 0
-123 -171 0
-15 -95 0
-15 -176 0
-95 -176 0
-14 -102 0
-46 -102 0
-102 -106 0
-102 -113 0
-98 -102 0
-14 -46 0
-14 -106 0
-14 -113 0
-14 -98 0
-46 -106 0
-46 -113 0
-46 -98 0
-106 -113 0
-98 -106 0
-98 -113 0
-13 -74 0
-12 -74 0
-72 -74 0
-68 -74 0
-11 -74 0
-12 -13 0
-13 -72 0
-13 -68 0
-11 -13 0
-12 -72 0
-12 -68 0
-11 -12 0
-68 -72 0
-11 -72 0
-11 -68 0
-10 -73 0
-10 -83 0
-10 -43 0
-9 -10 0
-10 -41 0
-73 -83 0
-43 -73 0
-9 -73 0
-41 -73 0
-43 -83 0
-9 -83 0
-41 -83 0
-9 -43 0
-41 -43 0
-9 -41 0
-7 -8 0
-8 -55 0
-6 -8 0
-8 -142 0
-8 -61 0
-7 -55 0
-6 -7 0
-7 -142 0
-7 -61 0
-6 -55 0
-55 -142 0
-55 -61 0
-6 -142 0
-6 -61 0
-61 -142 0
-145 -149 0
-51 -145 0
-86 -145 0
-5 -145 0
-40 -145 0
-51 -149 0
-86 -149 0
-5 -149 0
-40 -149 0
-51 -86 0
-5 -51 0
-40 -51 0
-5 -86 0
-40 -86 0
-5 -40 0
-81 -155 0
-81 -111 0
-81 -167 0
-81 -173 0
-4 -81 0
-111 -155 0
-155 -167 0
-155 -173 0
-4 -155 0
-111 -167 0
-111 -173 0
-4 -111 0
-167 -173 0
-4 -167 0
-4 -173 0
-74 -102 0
-10 -102 0
-8 -102 0
-102 -145 0
-81 -102 0
-10 -74 0
-8 -74 0
-74 -145 0
-74 -81 0
-8 -10 0
-10 -145 0
-10 -81 0
-8 -145 0
-8 -81 0
-81 -145 0
-13 -14 0
-14 -73 0
-7 -14 0
-14 -149 0
-14 -155 0
-13 -73 0
-7 -13 0
-13 -149 0
-13 -155 0
-7 -73 0
-73 -149 0
-73 -155 0
-7 -149 0
-7 -155 0
-149 -155 0
-12 -46 0
-46 -83 0
-46 -55 0
-46 -51 0
-46 -111 0
-12 -83 0
-12 -55 0
-12 -51 0
-12 -111 0
-55 -83 0
-51 -83 0
-83 -111 0
-51 -55 0
-55 -111 0
-51 -111 0
-72 -106 0
-43 -106 0
-6 -106 0
-86 -106 0
-106 -167 0
-43 -72 0
-6 -72 0
-72 -86 0
-72 -167 0
-6 -43 0
-43 -86 0
-43 -167 0
-6 -86 0
-6 -167 0
-86 -167 0
-68 -113 0
-9 -113 0
-113 -142 0
-5 -113 0
-113 -173 0
-9 -68 0
-68 -142 0
-5 -68 0
-68 -173 0
-9 -142 0
-5 -9 0
-9 -173 0
-5 -142 0
-142 -173 0
-5 -173 0
-11 -98 0
-41 -98 0
-61 -98 0
-40 -98 0
-4 -98 0
-11 -41 0
-11 -61 0
-11 -40 0
-4 -11 0
-41 -61 0
-40 -41 0
-4 -41 0
-40 -61 0
-4 -61 0
-4 -40 0
-3 -129 0
-127 -129 0
-129 -132 0
-3 -127 0
-3 -132 0
-127 -132 0
-57 -159 0
-2 -57 0
-57 -58 0
-2 -159 0
-58 -159 0
-2 -58 0
-47 -101 0
-101 -112 0
-97 -101 0
-47 -112 0
-47 -97 0
-97 -112 0
-117 -119 0
-117 -174 0
-1 -117 0
-119 -174 0
-1 -119 0
-1 -174 0
-57 -129 0
-101 -129 0
-117 -129 0
-57 -101 0
-57 -117 0
-101 -117 0
-3 -159 0
-3 -47 0
-3 -119 0
-47 -159 0
-119 -159 0
-47 -119 0
-2 -127 0
-112 -127 0
-127 -174 0
-2 -112 0
-2 -174 0
-112 -174 0
-58 -132 0
-97 -132 0
-1 -132 0
-58 -97 0
-1 -58 0
-1 -97 0
